p cep 20 113
14 17
10 17
7 12
15 20
17 20
13 17
1 6
18 19
2 5
4 19
6 10
14 18
10 18
7 19
12 17
13 20
18 20
8 15
2 6
9 14
4 5
10 13
9 16
14 15
16 19
17 18
8 12
10 14
8 18
11 15
9 19
7 8
15 16
11 16
8 9
7 15
12 13
13 16
1 5
3 6
1 10
9 20
14 19
7 18
12 18
13 19
3 5
9 13
4 6
11 20
10 20
7 17
16 20
1 3
8 13
4 8
2 8
10 15
8 19
11 14
9 18
7 11
15 19
11 19
7 20
16 17
12 20
8 10
9 11
8 16
11 13
7 14
12 14
13 15
2 20
1 4
2 3
14 16
10 16
7 13
12 19
1 18
13 18
3 4
2 4
9 12
10 11
5 6
7 16
12 16
1 2
8 14
9 15
10 12
8 20
9 17
7 10
15 18
11 18
16 18
17 19
8 11
9 10
8 17
14 20
4 20
11 12
19 20
7 9
15 17
12 15
11 17
13 14
